p wcnf 566 1504
w -2 0.367879 0
w 2 2.718282 0
w -3 0.367879 0
w 3 2.718282 0
w -4 0.367879 0
w 4 2.718282 0
w -5 0.367879 0
w 5 2.718282 0
w -6 0.367879 0
w 6 2.718282 0
w -8 0.367879 0
w 8 2.718282 0
w -9 0.367879 0
w 9 2.718282 0
w -10 0.367879 0
w 10 2.718282 0
w -12 0.367879 0
w 12 2.718282 0
w -13 0.367879 0
w 13 2.718282 0
w -14 0.367879 0
w 14 2.718282 0
w -16 0.367879 0
w 16 2.718282 0
w -17 0.367879 0
w 17 2.718282 0
w -18 0.367879 0
w 18 2.718282 0
w -19 0.367879 0
w 19 2.718282 0
w -20 0.367879 0
w 20 2.718282 0
w -21 0.367879 0
w 21 2.718282 0
w -23 0.367879 0
w 23 2.718282 0
w -24 0.367879 0
w 24 2.718282 0
w -25 0.367879 0
w 25 2.718282 0
w -26 0.367879 0
w 26 2.718282 0
w -27 0.367879 0
w 27 2.718282 0
w -28 0.367879 0
w 28 2.718282 0
w -30 0.367879 0
w 30 2.718282 0
w -31 0.367879 0
w 31 2.718282 0
w -33 0.367879 0
w 33 2.718282 0
w -34 0.367879 0
w 34 2.718282 0
w -36 0.367879 0
w 36 2.718282 0
w -37 0.367879 0
w 37 2.718282 0
w -38 0.367879 0
w 38 2.718282 0
w -40 0.367879 0
w 40 2.718282 0
w -41 0.367879 0
w 41 2.718282 0
w -42 0.367879 0
w 42 2.718282 0
w -43 0.367879 0
w 43 2.718282 0
w -44 0.367879 0
w 44 2.718282 0
w -45 0.367879 0
w 45 2.718282 0
w -47 0.367879 0
w 47 2.718282 0
w -48 0.367879 0
w 48 2.718282 0
w -50 0.367879 0
w 50 2.718282 0
w -51 0.367879 0
w 51 2.718282 0
w -52 0.367879 0
w 52 2.718282 0
w -53 0.367879 0
w 53 2.718282 0
w -55 0.367879 0
w 55 2.718282 0
w -56 0.367879 0
w 56 2.718282 0
w -57 0.367879 0
w 57 2.718282 0
w -58 0.367879 0
w 58 2.718282 0
w -60 0.367879 0
w 60 2.718282 0
w -61 0.367879 0
w 61 2.718282 0
w -62 0.367879 0
w 62 2.718282 0
w -63 0.367879 0
w 63 2.718282 0
w -65 0.367879 0
w 65 2.718282 0
w -66 0.367879 0
w 66 2.718282 0
w -67 0.367879 0
w 67 2.718282 0
w -68 0.367879 0
w 68 2.718282 0
w -70 0.367879 0
w 70 2.718282 0
w -71 0.367879 0
w 71 2.718282 0
w -73 0.367879 0
w 73 2.718282 0
w -75 0.367879 0
w 75 2.718282 0
w -76 0.367879 0
w 76 2.718282 0
w -77 0.367879 0
w 77 2.718282 0
w -78 0.367879 0
w 78 2.718282 0
w -79 0.367879 0
w 79 2.718282 0
w -80 0.367879 0
w 80 2.718282 0
w -81 0.367879 0
w 81 2.718282 0
w -82 0.367879 0
w 82 2.718282 0
w -84 0.367879 0
w 84 2.718282 0
w -85 0.367879 0
w 85 2.718282 0
w -86 0.367879 0
w 86 2.718282 0
w -87 0.367879 0
w 87 2.718282 0
w -88 0.367879 0
w 88 2.718282 0
w -90 0.367879 0
w 90 2.718282 0
w -91 0.367879 0
w 91 2.718282 0
w -92 0.367879 0
w 92 2.718282 0
w -94 0.367879 0
w 94 2.718282 0
w -96 0.367879 0
w 96 2.718282 0
w -97 0.367879 0
w 97 2.718282 0
w -98 0.367879 0
w 98 2.718282 0
w -99 0.367879 0
w 99 2.718282 0
w -100 0.367879 0
w 100 2.718282 0
w -102 0.367879 0
w 102 2.718282 0
w -103 0.367879 0
w 103 2.718282 0
w -104 0.367879 0
w 104 2.718282 0
w -105 0.367879 0
w 105 2.718282 0
w -106 0.367879 0
w 106 2.718282 0
w -108 0.367879 0
w 108 2.718282 0
w -109 0.367879 0
w 109 2.718282 0
w -110 0.367879 0
w 110 2.718282 0
w -112 0.367879 0
w 112 2.718282 0
w -113 0.367879 0
w 113 2.718282 0
w -114 0.367879 0
w 114 2.718282 0
w -116 0.367879 0
w 116 2.718282 0
w -117 0.367879 0
w 117 2.718282 0
w -118 0.367879 0
w 118 2.718282 0
w -119 0.367879 0
w 119 2.718282 0
w -120 0.367879 0
w 120 2.718282 0
w -122 0.367879 0
w 122 2.718282 0
w -123 0.367879 0
w 123 2.718282 0
w -124 0.367879 0
w 124 2.718282 0
w -125 0.367879 0
w 125 2.718282 0
w -126 0.367879 0
w 126 2.718282 0
w -128 0.367879 0
w 128 2.718282 0
w -129 0.367879 0
w 129 2.718282 0
w -130 0.367879 0
w 130 2.718282 0
w -131 0.367879 0
w 131 2.718282 0
w -132 0.367879 0
w 132 2.718282 0
w -133 0.367879 0
w 133 2.718282 0
w -134 0.367879 0
w 134 2.718282 0
w -136 0.367879 0
w 136 2.718282 0
w -138 0.367879 0
w 138 2.718282 0
w -139 0.367879 0
w 139 2.718282 0
w -141 0.367879 0
w 141 2.718282 0
w -143 0.367879 0
w 143 2.718282 0
w -144 0.367879 0
w 144 2.718282 0
w -146 0.367879 0
w 146 2.718282 0
w -147 0.367879 0
w 147 2.718282 0
w -148 0.367879 0
w 148 2.718282 0
w -149 0.367879 0
w 149 2.718282 0
w -151 0.367879 0
w 151 2.718282 0
w -152 0.367879 0
w 152 2.718282 0
w -153 0.367879 0
w 153 2.718282 0
w -155 0.367879 0
w 155 2.718282 0
w -156 0.367879 0
w 156 2.718282 0
w -157 0.367879 0
w 157 2.718282 0
w -158 0.367879 0
w 158 2.718282 0
w -159 0.367879 0
w 159 2.718282 0
w -160 0.367879 0
w 160 2.718282 0
w -162 0.367879 0
w 162 2.718282 0
w -163 0.367879 0
w 163 2.718282 0
w -165 0.367879 0
w 165 2.718282 0
w -166 0.367879 0
w 166 2.718282 0
w -168 0.367879 0
w 168 2.718282 0
w -169 0.367879 0
w 169 2.718282 0
w -171 0.367879 0
w 171 2.718282 0
w -172 0.367879 0
w 172 2.718282 0
w -173 0.367879 0
w 173 2.718282 0
w -174 0.367879 0
w 174 2.718282 0
w -175 0.367879 0
w 175 2.718282 0
w -177 0.367879 0
w 177 2.718282 0
w -178 0.367879 0
w 178 2.718282 0
w -179 0.367879 0
w 179 2.718282 0
w -181 0.367879 0
w 181 2.718282 0
w -182 0.367879 0
w 182 2.718282 0
w -183 0.367879 0
w 183 2.718282 0
w -184 0.367879 0
w 184 2.718282 0
w -185 0.367879 0
w 185 2.718282 0
w -187 0.367879 0
w 187 2.718282 0
w -188 0.367879 0
w 188 2.718282 0
w -189 0.367879 0
w 189 2.718282 0
w -190 0.367879 0
w 190 2.718282 0
w -192 0.367879 0
w 192 2.718282 0
w -193 0.367879 0
w 193 2.718282 0
w -194 0.367879 0
w 194 2.718282 0
w -196 0.367879 0
w 196 2.718282 0
w -197 0.367879 0
w 197 2.718282 0
w -198 0.367879 0
w 198 2.718282 0
w -199 0.367879 0
w 199 2.718282 0
w -200 0.367879 0
w 200 2.718282 0
w -202 0.367879 0
w 202 2.718282 0
w -203 0.367879 0
w 203 2.718282 0
w -204 0.367879 0
w 204 2.718282 0
w -205 0.367879 0
w 205 2.718282 0
w -207 0.367879 0
w 207 2.718282 0
w -208 0.367879 0
w 208 2.718282 0
w -209 0.367879 0
w 209 2.718282 0
w -210 0.367879 0
w 210 2.718282 0
w -211 0.367879 0
w 211 2.718282 0
w -213 0.367879 0
w 213 2.718282 0
w -214 0.367879 0
w 214 2.718282 0
w -216 0.367879 0
w 216 2.718282 0
w -217 0.367879 0
w 217 2.718282 0
w -218 0.367879 0
w 218 2.718282 0
w -220 0.367879 0
w 220 2.718282 0
w -221 0.367879 0
w 221 2.718282 0
w -223 0.367879 0
w 223 2.718282 0
w -224 0.367879 0
w 224 2.718282 0
w -225 0.367879 0
w 225 2.718282 0
w -227 0.367879 0
w 227 2.718282 0
w -228 0.367879 0
w 228 2.718282 0
w -229 0.367879 0
w 229 2.718282 0
w -230 0.367879 0
w 230 2.718282 0
w -233 0.367879 0
w 233 2.718282 0
w -234 0.367879 0
w 234 2.718282 0
w -235 0.367879 0
w 235 2.718282 0
w -237 0.367879 0
w 237 2.718282 0
w -238 0.367879 0
w 238 2.718282 0
w -239 0.367879 0
w 239 2.718282 0
w -240 0.367879 0
w 240 2.718282 0
w -242 0.367879 0
w 242 2.718282 0
w -243 0.367879 0
w 243 2.718282 0
w -244 0.367879 0
w 244 2.718282 0
w -245 0.367879 0
w 245 2.718282 0
w -246 0.367879 0
w 246 2.718282 0
w -248 0.367879 0
w 248 2.718282 0
w -249 0.367879 0
w 249 2.718282 0
w -250 0.367879 0
w 250 2.718282 0
w -252 0.367879 0
w 252 2.718282 0
w -253 0.367879 0
w 253 2.718282 0
w -254 0.367879 0
w 254 2.718282 0
w -255 0.367879 0
w 255 2.718282 0
w -257 0.367879 0
w 257 2.718282 0
w -258 0.367879 0
w 258 2.718282 0
w -259 0.367879 0
w 259 2.718282 0
w -260 0.367879 0
w 260 2.718282 0
w -262 0.367879 0
w 262 2.718282 0
w -264 0.367879 0
w 264 2.718282 0
w -265 0.367879 0
w 265 2.718282 0
w -267 0.367879 0
w 267 2.718282 0
w -268 0.367879 0
w 268 2.718282 0
w -269 0.367879 0
w 269 2.718282 0
w -272 0.367879 0
w 272 2.718282 0
w -273 0.367879 0
w 273 2.718282 0
w -275 0.367879 0
w 275 2.718282 0
w -276 0.367879 0
w 276 2.718282 0
w -278 0.367879 0
w 278 2.718282 0
w -279 0.367879 0
w 279 2.718282 0
w -280 0.367879 0
w 280 2.718282 0
w -281 0.367879 0
w 281 2.718282 0
w -283 0.367879 0
w 283 2.718282 0
w -284 0.367879 0
w 284 2.718282 0
w -285 0.367879 0
w 285 2.718282 0
w -287 0.367879 0
w 287 2.718282 0
w -288 0.367879 0
w 288 2.718282 0
w -289 0.367879 0
w 289 2.718282 0
w -290 0.367879 0
w 290 2.718282 0
w -292 0.367879 0
w 292 2.718282 0
w -293 0.367879 0
w 293 2.718282 0
w -294 0.367879 0
w 294 2.718282 0
w -297 0.367879 0
w 297 2.718282 0
w -299 0.367879 0
w 299 2.718282 0
w -301 0.367879 0
w 301 2.718282 0
w -302 0.367879 0
w 302 2.718282 0
w -304 0.367879 0
w 304 2.718282 0
w -305 0.367879 0
w 305 2.718282 0
w -307 0.367879 0
w 307 2.718282 0
w -308 0.367879 0
w 308 2.718282 0
w -309 0.367879 0
w 309 2.718282 0
w -312 0.367879 0
w 312 2.718282 0
w -313 0.367879 0
w 313 2.718282 0
w -314 0.367879 0
w 314 2.718282 0
w -315 0.367879 0
w 315 2.718282 0
w -316 0.367879 0
w 316 2.718282 0
w -317 0.367879 0
w 317 2.718282 0
w -319 0.367879 0
w 319 2.718282 0
w -320 0.367879 0
w 320 2.718282 0
w -322 0.367879 0
w 322 2.718282 0
w -324 0.367879 0
w 324 2.718282 0
w -325 0.367879 0
w 325 2.718282 0
w -327 0.367879 0
w 327 2.718282 0
w -329 0.367879 0
w 329 2.718282 0
w -330 0.367879 0
w 330 2.718282 0
w -331 0.367879 0
w 331 2.718282 0
w -332 0.367879 0
w 332 2.718282 0
w -334 0.367879 0
w 334 2.718282 0
w -335 0.367879 0
w 335 2.718282 0
w -336 0.367879 0
w 336 2.718282 0
w -338 0.367879 0
w 338 2.718282 0
w -340 0.367879 0
w 340 2.718282 0
w -341 0.367879 0
w 341 2.718282 0
w -342 0.367879 0
w 342 2.718282 0
w -344 0.367879 0
w 344 2.718282 0
w -346 0.367879 0
w 346 2.718282 0
w -347 0.367879 0
w 347 2.718282 0
w -348 0.367879 0
w 348 2.718282 0
w -350 0.367879 0
w 350 2.718282 0
w -351 0.367879 0
w 351 2.718282 0
w -353 0.367879 0
w 353 2.718282 0
w -355 0.367879 0
w 355 2.718282 0
w -356 0.367879 0
w 356 2.718282 0
w -357 0.367879 0
w 357 2.718282 0
w -358 0.367879 0
w 358 2.718282 0
w -360 0.367879 0
w 360 2.718282 0
w -361 0.367879 0
w 361 2.718282 0
w -362 0.367879 0
w 362 2.718282 0
w -363 0.367879 0
w 363 2.718282 0
w -366 0.367879 0
w 366 2.718282 0
w -368 0.367879 0
w 368 2.718282 0
w -370 0.367879 0
w 370 2.718282 0
w -371 0.367879 0
w 371 2.718282 0
w -373 0.367879 0
w 373 2.718282 0
w -374 0.367879 0
w 374 2.718282 0
w -375 0.367879 0
w 375 2.718282 0
w -376 0.367879 0
w 376 2.718282 0
w -377 0.367879 0
w 377 2.718282 0
w -379 0.367879 0
w 379 2.718282 0
w -380 0.367879 0
w 380 2.718282 0
w -381 0.367879 0
w 381 2.718282 0
w -382 0.367879 0
w 382 2.718282 0
w -384 0.367879 0
w 384 2.718282 0
w -387 0.367879 0
w 387 2.718282 0
w -389 0.367879 0
w 389 2.718282 0
w -390 0.367879 0
w 390 2.718282 0
w -391 0.367879 0
w 391 2.718282 0
w -393 0.367879 0
w 393 2.718282 0
w -394 0.367879 0
w 394 2.718282 0
w -395 0.367879 0
w 395 2.718282 0
w -396 0.367879 0
w 396 2.718282 0
w -400 0.367879 0
w 400 2.718282 0
w -401 0.367879 0
w 401 2.718282 0
w -403 0.367879 0
w 403 2.718282 0
w -405 0.367879 0
w 405 2.718282 0
w -407 0.367879 0
w 407 2.718282 0
w -408 0.367879 0
w 408 2.718282 0
w -410 0.367879 0
w 410 2.718282 0
w -411 0.367879 0
w 411 2.718282 0
w -412 0.367879 0
w 412 2.718282 0
w -414 0.367879 0
w 414 2.718282 0
w -415 0.367879 0
w 415 2.718282 0
w -416 0.367879 0
w 416 2.718282 0
w -418 0.367879 0
w 418 2.718282 0
w -419 0.367879 0
w 419 2.718282 0
w -420 0.367879 0
w 420 2.718282 0
w -422 0.367879 0
w 422 2.718282 0
w -424 0.367879 0
w 424 2.718282 0
w -426 0.367879 0
w 426 2.718282 0
w -428 0.367879 0
w 428 2.718282 0
w -430 0.367879 0
w 430 2.718282 0
w -431 0.367879 0
w 431 2.718282 0
w -433 0.367879 0
w 433 2.718282 0
w -434 0.367879 0
w 434 2.718282 0
w -436 0.367879 0
w 436 2.718282 0
w -437 0.367879 0
w 437 2.718282 0
w -439 0.367879 0
w 439 2.718282 0
w -440 0.367879 0
w 440 2.718282 0
w -444 0.367879 0
w 444 2.718282 0
w -445 0.367879 0
w 445 2.718282 0
w -446 0.367879 0
w 446 2.718282 0
w -447 0.367879 0
w 447 2.718282 0
w -448 0.367879 0
w 448 2.718282 0
w -450 0.367879 0
w 450 2.718282 0
w -452 0.367879 0
w 452 2.718282 0
w -453 0.367879 0
w 453 2.718282 0
w -455 0.367879 0
w 455 2.718282 0
w -458 0.367879 0
w 458 2.718282 0
w -459 0.367879 0
w 459 2.718282 0
w -460 0.367879 0
w 460 2.718282 0
w -462 0.367879 0
w 462 2.718282 0
w -463 0.367879 0
w 463 2.718282 0
w -465 0.367879 0
w 465 2.718282 0
w -467 0.367879 0
w 467 2.718282 0
w -468 0.367879 0
w 468 2.718282 0
w -470 0.367879 0
w 470 2.718282 0
w -471 0.367879 0
w 471 2.718282 0
w -472 0.367879 0
w 472 2.718282 0
w -475 0.367879 0
w 475 2.718282 0
w -477 0.367879 0
w 477 2.718282 0
w -478 0.367879 0
w 478 2.718282 0
w -480 0.367879 0
w 480 2.718282 0
w -482 0.367879 0
w 482 2.718282 0
w -484 0.367879 0
w 484 2.718282 0
w -488 0.367879 0
w 488 2.718282 0
w -490 0.367879 0
w 490 2.718282 0
w -496 0.367879 0
w 496 2.718282 0
w -500 0.367879 0
w 500 2.718282 0
w -502 0.367879 0
w 502 2.718282 0
w -503 0.367879 0
w 503 2.718282 0
w -504 0.367879 0
w 504 2.718282 0
w -507 0.367879 0
w 507 2.718282 0
w -508 0.367879 0
w 508 2.718282 0
w -509 0.367879 0
w 509 2.718282 0
w -511 0.367879 0
w 511 2.718282 0
w -513 0.367879 0
w 513 2.718282 0
w -515 0.367879 0
w 515 2.718282 0
w -516 0.367879 0
w 516 2.718282 0
w -518 0.367879 0
w 518 2.718282 0
w -519 0.367879 0
w 519 2.718282 0
w -522 0.367879 0
w 522 2.718282 0
w -523 0.367879 0
w 523 2.718282 0
w -525 0.367879 0
w 525 2.718282 0
w -527 0.367879 0
w 527 2.718282 0
w -531 0.367879 0
w 531 2.718282 0
w -532 0.367879 0
w 532 2.718282 0
w -537 0.367879 0
w 537 2.718282 0
w -548 0.367879 0
w 548 2.718282 0
w -552 0.367879 0
w 552 2.718282 0
w -558 0.367879 0
w 558 2.718282 0
w -561 0.367879 0
w 561 2.718282 0
2 1 93 0
2 -1 -93 0
-2 1 -93 0
-2 -1 93 0
3 1 150 0
3 -1 -150 0
-3 1 -150 0
-3 -1 150 0
4 1 435 0
4 -1 -435 0
-4 1 -435 0
-4 -1 435 0
5 1 489 0
5 -1 -489 0
-5 1 -489 0
-5 -1 489 0
6 1 550 0
6 -1 -550 0
-6 1 -550 0
-6 -1 550 0
8 7 201 0
8 -7 -201 0
-8 7 -201 0
-8 -7 201 0
9 7 212 0
9 -7 -212 0
-9 7 -212 0
-9 -7 212 0
10 7 538 0
10 -7 -538 0
-10 7 -538 0
-10 -7 538 0
12 11 49 0
12 -11 -49 0
-12 11 -49 0
-12 -11 49 0
13 11 215 0
13 -11 -215 0
-13 11 -215 0
-13 -11 215 0
14 11 553 0
14 -11 -553 0
-14 11 -553 0
-14 -11 553 0
16 15 206 0
16 -15 -206 0
-16 15 -206 0
-16 -15 206 0
17 15 321 0
17 -15 -321 0
-17 15 -321 0
-17 -15 321 0
18 15 339 0
18 -15 -339 0
-18 15 -339 0
-18 -15 339 0
19 15 345 0
19 -15 -345 0
-19 15 -345 0
-19 -15 345 0
20 15 406 0
20 -15 -406 0
-20 15 -406 0
-20 -15 406 0
21 15 442 0
21 -15 -442 0
-21 15 -442 0
-21 -15 442 0
23 22 95 0
23 -22 -95 0
-23 22 -95 0
-23 -22 95 0
24 22 266 0
24 -22 -266 0
-24 22 -266 0
-24 -22 266 0
25 22 282 0
25 -22 -282 0
-25 22 -282 0
-25 -22 282 0
26 22 385 0
26 -22 -385 0
-26 22 -385 0
-26 -22 385 0
27 22 413 0
27 -22 -413 0
-27 22 -413 0
-27 -22 413 0
28 22 487 0
28 -22 -487 0
-28 22 -487 0
-28 -22 487 0
30 29 222 0
30 -29 -222 0
-30 29 -222 0
-30 -29 222 0
31 29 263 0
31 -29 -263 0
-31 29 -263 0
-31 -29 263 0
33 32 271 0
33 -32 -271 0
-33 32 -271 0
-33 -32 271 0
34 32 555 0
34 -32 -555 0
-34 32 -555 0
-34 -32 555 0
36 35 474 0
36 -35 -474 0
-36 35 -474 0
-36 -35 474 0
37 35 547 0
37 -35 -547 0
-37 35 -547 0
-37 -35 547 0
38 35 551 0
38 -35 -551 0
-38 35 -551 0
-38 -35 551 0
40 39 127 0
40 -39 -127 0
-40 39 -127 0
-40 -39 127 0
41 39 215 0
41 -39 -215 0
-41 39 -215 0
-41 -39 215 0
42 39 409 0
42 -39 -409 0
-42 39 -409 0
-42 -39 409 0
43 39 485 0
43 -39 -485 0
-43 39 -485 0
-43 -39 485 0
44 39 486 0
44 -39 -486 0
-44 39 -486 0
-44 -39 486 0
45 39 545 0
45 -39 -545 0
-45 39 -545 0
-45 -39 545 0
47 46 326 0
47 -46 -326 0
-47 46 -326 0
-47 -46 326 0
48 46 528 0
48 -46 -528 0
-48 46 -528 0
-48 -46 528 0
50 49 180 0
50 -49 -180 0
-50 49 -180 0
-50 -49 180 0
51 49 277 0
51 -49 -277 0
-51 49 -277 0
-51 -49 277 0
52 49 337 0
52 -49 -337 0
-52 49 -337 0
-52 -49 337 0
53 49 343 0
53 -49 -343 0
-53 49 -343 0
-53 -49 343 0
55 54 191 0
55 -54 -191 0
-55 54 -191 0
-55 -54 191 0
56 54 247 0
56 -54 -247 0
-56 54 -247 0
-56 -54 247 0
57 54 364 0
57 -54 -364 0
-57 54 -364 0
-57 -54 364 0
58 54 457 0
58 -54 -457 0
-58 54 -457 0
-58 -54 457 0
60 59 111 0
60 -59 -111 0
-60 59 -111 0
-60 -59 111 0
61 59 219 0
61 -59 -219 0
-61 59 -219 0
-61 -59 219 0
62 59 247 0
62 -59 -247 0
-62 59 -247 0
-62 -59 247 0
63 59 365 0
63 -59 -365 0
-63 59 -365 0
-63 -59 365 0
65 64 167 0
65 -64 -167 0
-65 64 -167 0
-65 -64 167 0
66 64 486 0
66 -64 -486 0
-66 64 -486 0
-66 -64 486 0
67 64 489 0
67 -64 -489 0
-67 64 -489 0
-67 -64 489 0
68 64 549 0
68 -64 -549 0
-68 64 -549 0
-68 -64 549 0
70 69 150 0
70 -69 -150 0
-70 69 -150 0
-70 -69 150 0
71 69 303 0
71 -69 -303 0
-71 69 -303 0
-71 -69 303 0
73 72 528 0
73 -72 -528 0
-73 72 -528 0
-73 -72 528 0
75 74 219 0
75 -74 -219 0
-75 74 -219 0
-75 -74 219 0
76 74 282 0
76 -74 -282 0
-76 74 -282 0
-76 -74 282 0
77 74 397 0
77 -74 -397 0
-77 74 -397 0
-77 -74 397 0
78 74 457 0
78 -74 -457 0
-78 74 -457 0
-78 -74 457 0
79 74 485 0
79 -74 -485 0
-79 74 -485 0
-79 -74 485 0
80 74 489 0
80 -74 -489 0
-80 74 -489 0
-80 -74 489 0
81 74 491 0
81 -74 -491 0
-81 74 -491 0
-81 -74 491 0
82 74 495 0
82 -74 -495 0
-82 74 -495 0
-82 -74 495 0
84 83 180 0
84 -83 -180 0
-84 83 -180 0
-84 -83 180 0
85 83 195 0
85 -83 -195 0
-85 83 -195 0
-85 -83 195 0
86 83 300 0
86 -83 -300 0
-86 83 -300 0
-86 -83 300 0
87 83 457 0
87 -83 -457 0
-87 83 -457 0
-87 -83 457 0
88 83 498 0
88 -83 -498 0
-88 83 -498 0
-88 -83 498 0
90 89 333 0
90 -89 -333 0
-90 89 -333 0
-90 -89 333 0
91 89 429 0
91 -89 -429 0
-91 89 -429 0
-91 -89 429 0
92 89 530 0
92 -89 -530 0
-92 89 -530 0
-92 -89 530 0
94 93 286 0
94 -93 -286 0
-94 93 -286 0
-94 -93 286 0
96 95 343 0
96 -95 -343 0
-96 95 -343 0
-96 -95 343 0
97 95 406 0
97 -95 -406 0
-97 95 -406 0
-97 -95 406 0
98 95 461 0
98 -95 -461 0
-98 95 -461 0
-98 -95 461 0
99 95 485 0
99 -95 -485 0
-99 95 -485 0
-99 -95 485 0
100 95 564 0
100 -95 -564 0
-100 95 -564 0
-100 -95 564 0
102 101 170 0
102 -101 -170 0
-102 101 -170 0
-102 -101 170 0
103 101 406 0
103 -101 -406 0
-103 101 -406 0
-103 -101 406 0
104 101 427 0
104 -101 -427 0
-104 101 -427 0
-104 -101 427 0
105 101 474 0
105 -101 -474 0
-105 101 -474 0
-105 -101 474 0
106 101 555 0
106 -101 -555 0
-106 101 -555 0
-106 -101 555 0
108 107 251 0
108 -107 -251 0
-108 107 -251 0
-108 -107 251 0
109 107 352 0
109 -107 -352 0
-109 107 -352 0
-109 -107 352 0
110 107 553 0
110 -107 -553 0
-110 107 -553 0
-110 -107 553 0
112 111 212 0
112 -111 -212 0
-112 111 -212 0
-112 -111 212 0
113 111 303 0
113 -111 -303 0
-113 111 -303 0
-113 -111 303 0
114 111 517 0
114 -111 -517 0
-114 111 -517 0
-114 -111 517 0
116 115 154 0
116 -115 -154 0
-116 115 -154 0
-116 -115 154 0
117 115 180 0
117 -115 -180 0
-117 115 -180 0
-117 -115 180 0
118 115 388 0
118 -115 -388 0
-118 115 -388 0
-118 -115 388 0
119 115 546 0
119 -115 -546 0
-119 115 -546 0
-119 -115 546 0
120 115 551 0
120 -115 -551 0
-120 115 -551 0
-120 -115 551 0
122 121 311 0
122 -121 -311 0
-122 121 -311 0
-122 -121 311 0
123 121 421 0
123 -121 -421 0
-123 121 -421 0
-123 -121 421 0
124 121 494 0
124 -121 -494 0
-124 121 -494 0
-124 -121 494 0
125 121 521 0
125 -121 -521 0
-125 121 -521 0
-125 -121 521 0
126 121 547 0
126 -121 -547 0
-126 121 -547 0
-126 -121 547 0
128 127 167 0
128 -127 -167 0
-128 127 -167 0
-128 -127 167 0
129 127 296 0
129 -127 -296 0
-129 127 -296 0
-129 -127 296 0
130 127 404 0
130 -127 -404 0
-130 127 -404 0
-130 -127 404 0
131 127 409 0
131 -127 -409 0
-131 127 -409 0
-131 -127 409 0
132 127 413 0
132 -127 -413 0
-132 127 -413 0
-132 -127 413 0
133 127 479 0
133 -127 -479 0
-133 127 -479 0
-133 -127 479 0
134 127 539 0
134 -127 -539 0
-134 127 -539 0
-134 -127 539 0
136 135 533 0
136 -135 -533 0
-136 135 -533 0
-136 -135 533 0
138 137 256 0
138 -137 -256 0
-138 137 -256 0
-138 -137 256 0
139 137 543 0
139 -137 -543 0
-139 137 -543 0
-139 -137 543 0
141 140 510 0
141 -140 -510 0
-141 140 -510 0
-141 -140 510 0
143 142 402 0
143 -142 -402 0
-143 142 -402 0
-143 -142 402 0
144 142 520 0
144 -142 -520 0
-144 142 -520 0
-144 -142 520 0
146 145 231 0
146 -145 -231 0
-146 145 -231 0
-146 -145 231 0
147 145 300 0
147 -145 -300 0
-147 145 -300 0
-147 -145 300 0
148 145 364 0
148 -145 -364 0
-148 145 -364 0
-148 -145 364 0
149 145 549 0
149 -145 -549 0
-149 145 -549 0
-149 -145 549 0
151 150 164 0
151 -150 -164 0
-151 150 -164 0
-151 -150 164 0
152 150 354 0
152 -150 -354 0
-152 150 -354 0
-152 -150 354 0
153 150 535 0
153 -150 -535 0
-153 150 -535 0
-153 -150 535 0
155 154 271 0
155 -154 -271 0
-155 154 -271 0
-155 -154 271 0
156 154 277 0
156 -154 -277 0
-156 154 -277 0
-156 -154 277 0
157 154 295 0
157 -154 -295 0
-157 154 -295 0
-157 -154 295 0
158 154 441 0
158 -154 -441 0
-158 154 -441 0
-158 -154 441 0
159 154 481 0
159 -154 -481 0
-159 154 -481 0
-159 -154 481 0
160 154 555 0
160 -154 -555 0
-160 154 -555 0
-160 -154 555 0
162 161 277 0
162 -161 -277 0
-162 161 -277 0
-162 -161 277 0
163 161 432 0
163 -161 -432 0
-163 161 -432 0
-163 -161 432 0
165 164 425 0
165 -164 -425 0
-165 164 -425 0
-165 -164 425 0
166 164 545 0
166 -164 -545 0
-166 164 -545 0
-166 -164 545 0
168 167 201 0
168 -167 -201 0
-168 167 -201 0
-168 -167 201 0
169 167 559 0
169 -167 -559 0
-169 167 -559 0
-169 -167 559 0
171 170 251 0
171 -170 -251 0
-171 170 -251 0
-171 -170 251 0
172 170 310 0
172 -170 -310 0
-172 170 -310 0
-172 -170 310 0
173 170 469 0
173 -170 -469 0
-173 170 -469 0
-173 -170 469 0
174 170 540 0
174 -170 -540 0
-174 170 -540 0
-174 -170 540 0
175 170 557 0
175 -170 -557 0
-175 170 -557 0
-175 -170 557 0
177 176 514 0
177 -176 -514 0
-177 176 -514 0
-177 -176 514 0
178 176 538 0
178 -176 -538 0
-178 176 -538 0
-178 -176 538 0
179 176 543 0
179 -176 -543 0
-179 176 -543 0
-179 -176 543 0
181 180 270 0
181 -180 -270 0
-181 180 -270 0
-181 -180 270 0
182 180 296 0
182 -180 -296 0
-182 180 -296 0
-182 -180 296 0
183 180 364 0
183 -180 -364 0
-183 180 -364 0
-183 -180 364 0
184 180 526 0
184 -180 -526 0
-184 180 -526 0
-184 -180 526 0
185 180 560 0
185 -180 -560 0
-185 180 -560 0
-185 -180 560 0
187 186 231 0
187 -186 -231 0
-187 186 -231 0
-187 -186 231 0
188 186 399 0
188 -186 -399 0
-188 186 -399 0
-188 -186 399 0
189 186 449 0
189 -186 -449 0
-189 186 -449 0
-189 -186 449 0
190 186 553 0
190 -186 -553 0
-190 186 -553 0
-190 -186 553 0
192 191 399 0
192 -191 -399 0
-192 191 -399 0
-192 -191 399 0
193 191 485 0
193 -191 -485 0
-193 191 -485 0
-193 -191 485 0
194 191 542 0
194 -191 -542 0
-194 191 -542 0
-194 -191 542 0
196 195 231 0
196 -195 -231 0
-196 195 -231 0
-196 -195 231 0
197 195 247 0
197 -195 -247 0
-197 195 -247 0
-197 -195 247 0
198 195 323 0
198 -195 -323 0
-198 195 -323 0
-198 -195 323 0
199 195 409 0
199 -195 -409 0
-199 195 -409 0
-199 -195 409 0
200 195 539 0
200 -195 -539 0
-200 195 -539 0
-200 -195 539 0
202 201 291 0
202 -201 -291 0
-202 201 -291 0
-202 -201 291 0
203 201 367 0
203 -201 -367 0
-203 201 -367 0
-203 -201 367 0
204 201 491 0
204 -201 -491 0
-204 201 -491 0
-204 -201 491 0
205 201 526 0
205 -201 -526 0
-205 201 -526 0
-205 -201 526 0
207 206 427 0
207 -206 -427 0
-207 206 -427 0
-207 -206 427 0
208 206 481 0
208 -206 -481 0
-208 206 -481 0
-208 -206 481 0
209 206 510 0
209 -206 -510 0
-209 206 -510 0
-209 -206 510 0
210 206 512 0
210 -206 -512 0
-210 206 -512 0
-210 -206 512 0
211 206 549 0
211 -206 -549 0
-211 206 -549 0
-211 -206 549 0
213 212 263 0
213 -212 -263 0
-213 212 -263 0
-213 -212 263 0
214 212 457 0
214 -212 -457 0
-214 212 -457 0
-214 -212 457 0
216 215 427 0
216 -215 -427 0
-216 215 -427 0
-216 -215 427 0
217 215 451 0
217 -215 -451 0
-217 215 -451 0
-217 -215 451 0
218 215 514 0
218 -215 -514 0
-218 215 -514 0
-218 -215 514 0
220 219 300 0
220 -219 -300 0
-220 219 -300 0
-220 -219 300 0
221 219 549 0
221 -219 -549 0
-221 219 -549 0
-221 -219 549 0
223 222 474 0
223 -222 -474 0
-223 222 -474 0
-223 -222 474 0
224 222 479 0
224 -222 -479 0
-224 222 -479 0
-224 -222 479 0
225 222 494 0
225 -222 -494 0
-225 222 -494 0
-225 -222 494 0
227 226 386 0
227 -226 -386 0
-227 226 -386 0
-227 -226 386 0
228 226 404 0
228 -226 -404 0
-228 226 -404 0
-228 -226 404 0
229 226 473 0
229 -226 -473 0
-229 226 -473 0
-229 -226 473 0
230 226 506 0
230 -226 -506 0
-230 226 -506 0
-230 -226 506 0
233 232 404 0
233 -232 -404 0
-233 232 -404 0
-233 -232 404 0
234 232 514 0
234 -232 -514 0
-234 232 -514 0
-234 -232 514 0
235 232 563 0
235 -232 -563 0
-235 232 -563 0
-235 -232 563 0
237 236 241 0
237 -236 -241 0
-237 236 -241 0
-237 -236 241 0
238 236 263 0
238 -236 -263 0
-238 236 -263 0
-238 -236 263 0
239 236 326 0
239 -236 -326 0
-239 236 -326 0
-239 -236 326 0
240 236 533 0
240 -236 -533 0
-240 236 -533 0
-240 -236 533 0
242 241 310 0
242 -241 -310 0
-242 241 -310 0
-242 -241 310 0
243 241 385 0
243 -241 -385 0
-243 241 -385 0
-243 -241 385 0
244 241 441 0
244 -241 -441 0
-244 241 -441 0
-244 -241 441 0
245 241 466 0
245 -241 -466 0
-245 241 -466 0
-245 -241 466 0
246 241 553 0
246 -241 -553 0
-246 241 -553 0
-246 -241 553 0
248 247 409 0
248 -247 -409 0
-248 247 -409 0
-248 -247 409 0
249 247 555 0
249 -247 -555 0
-249 247 -555 0
-249 -247 555 0
250 247 560 0
250 -247 -560 0
-250 247 -560 0
-250 -247 560 0
252 251 337 0
252 -251 -337 0
-252 251 -337 0
-252 -251 337 0
253 251 492 0
253 -251 -492 0
-253 251 -492 0
-253 -251 492 0
254 251 536 0
254 -251 -536 0
-254 251 -536 0
-254 -251 536 0
255 251 566 0
255 -251 -566 0
-255 251 -566 0
-255 -251 566 0
257 256 295 0
257 -256 -295 0
-257 256 -295 0
-257 -256 295 0
258 256 425 0
258 -256 -425 0
-258 256 -425 0
-258 -256 425 0
259 256 438 0
259 -256 -438 0
-259 256 -438 0
-259 -256 438 0
260 256 483 0
260 -256 -483 0
-260 256 -483 0
-260 -256 483 0
262 261 451 0
262 -261 -451 0
-262 261 -451 0
-262 -261 451 0
264 263 514 0
264 -263 -514 0
-264 263 -514 0
-264 -263 514 0
265 263 554 0
265 -263 -554 0
-265 263 -554 0
-265 -263 554 0
267 266 367 0
267 -266 -367 0
-267 266 -367 0
-267 -266 367 0
268 266 521 0
268 -266 -521 0
-268 266 -521 0
-268 -266 521 0
269 266 550 0
269 -266 -550 0
-269 266 -550 0
-269 -266 550 0
272 271 427 0
272 -271 -427 0
-272 271 -427 0
-272 -271 427 0
273 271 534 0
273 -271 -534 0
-273 271 -534 0
-273 -271 534 0
275 274 282 0
275 -274 -282 0
-275 274 -282 0
-275 -274 282 0
276 274 473 0
276 -274 -473 0
-276 274 -473 0
-276 -274 473 0
278 277 339 0
278 -277 -339 0
-278 277 -339 0
-278 -277 339 0
279 277 442 0
279 -277 -442 0
-279 277 -442 0
-279 -277 442 0
280 277 487 0
280 -277 -487 0
-280 277 -487 0
-280 -277 487 0
281 277 495 0
281 -277 -495 0
-281 277 -495 0
-281 -277 495 0
283 282 510 0
283 -282 -510 0
-283 282 -510 0
-283 -282 510 0
284 282 530 0
284 -282 -530 0
-284 282 -530 0
-284 -282 530 0
285 282 551 0
285 -282 -551 0
-285 282 -551 0
-285 -282 551 0
287 286 345 0
287 -286 -345 0
-287 286 -345 0
-287 -286 345 0
288 286 388 0
288 -286 -388 0
-288 286 -388 0
-288 -286 388 0
289 286 454 0
289 -286 -454 0
-289 286 -454 0
-289 -286 454 0
290 286 464 0
290 -286 -464 0
-290 286 -464 0
-290 -286 464 0
292 291 310 0
292 -291 -310 0
-292 291 -310 0
-292 -291 310 0
293 291 365 0
293 -291 -365 0
-293 291 -365 0
-293 -291 365 0
294 291 560 0
294 -291 -560 0
-294 291 -560 0
-294 -291 560 0
297 296 566 0
297 -296 -566 0
-297 296 -566 0
-297 -296 566 0
299 298 499 0
299 -298 -499 0
-299 298 -499 0
-299 -298 499 0
301 300 328 0
301 -300 -328 0
-301 300 -328 0
-301 -300 328 0
302 300 506 0
302 -300 -506 0
-302 300 -506 0
-302 -300 506 0
304 303 359 0
304 -303 -359 0
-304 303 -359 0
-304 -303 359 0
305 303 550 0
305 -303 -550 0
-305 303 -550 0
-305 -303 550 0
307 306 339 0
307 -306 -339 0
-307 306 -339 0
-307 -306 339 0
308 306 372 0
308 -306 -372 0
-308 306 -372 0
-308 -306 372 0
309 306 399 0
309 -306 -399 0
-309 306 -399 0
-309 -306 399 0
312 311 369 0
312 -311 -369 0
-312 311 -369 0
-312 -311 369 0
313 311 427 0
313 -311 -427 0
-313 311 -427 0
-313 -311 427 0
314 311 451 0
314 -311 -451 0
-314 311 -451 0
-314 -311 451 0
315 311 545 0
315 -311 -545 0
-315 311 -545 0
-315 -311 545 0
316 311 559 0
316 -311 -559 0
-316 311 -559 0
-316 -311 559 0
317 311 565 0
317 -311 -565 0
-317 311 -565 0
-317 -311 565 0
319 318 378 0
319 -318 -378 0
-319 318 -378 0
-319 -318 378 0
320 318 457 0
320 -318 -457 0
-320 318 -457 0
-320 -318 457 0
322 321 443 0
322 -321 -443 0
-322 321 -443 0
-322 -321 443 0
324 323 386 0
324 -323 -386 0
-324 323 -386 0
-324 -323 386 0
325 323 563 0
325 -323 -563 0
-325 323 -563 0
-325 -323 563 0
327 326 565 0
327 -326 -565 0
-327 326 -565 0
-327 -326 565 0
329 328 397 0
329 -328 -397 0
-329 328 -397 0
-329 -328 397 0
330 328 512 0
330 -328 -512 0
-330 328 -512 0
-330 -328 512 0
331 328 550 0
331 -328 -550 0
-331 328 -550 0
-331 -328 550 0
332 328 553 0
332 -328 -553 0
-332 328 -553 0
-332 -328 553 0
334 333 385 0
334 -333 -385 0
-334 333 -385 0
-334 -333 385 0
335 333 464 0
335 -333 -464 0
-335 333 -464 0
-335 -333 464 0
336 333 501 0
336 -333 -501 0
-336 333 -501 0
-336 -333 501 0
338 337 521 0
338 -337 -521 0
-338 337 -521 0
-338 -337 521 0
340 339 423 0
340 -339 -423 0
-340 339 -423 0
-340 -339 423 0
341 339 489 0
341 -339 -489 0
-341 339 -489 0
-341 -339 489 0
342 339 563 0
342 -339 -563 0
-342 339 -563 0
-342 -339 563 0
344 343 491 0
344 -343 -491 0
-344 343 -491 0
-344 -343 491 0
346 345 398 0
346 -345 -398 0
-346 345 -398 0
-346 -345 398 0
347 345 454 0
347 -345 -454 0
-347 345 -454 0
-347 -345 454 0
348 345 492 0
348 -345 -492 0
-348 345 -492 0
-348 -345 492 0
350 349 456 0
350 -349 -456 0
-350 349 -456 0
-350 -349 456 0
351 349 487 0
351 -349 -487 0
-351 349 -487 0
-351 -349 487 0
353 352 560 0
353 -352 -560 0
-353 352 -560 0
-353 -352 560 0
355 354 421 0
355 -354 -421 0
-355 354 -421 0
-355 -354 421 0
356 354 432 0
356 -354 -432 0
-356 354 -432 0
-356 -354 432 0
357 354 494 0
357 -354 -494 0
-357 354 -494 0
-357 -354 494 0
358 354 563 0
358 -354 -563 0
-358 354 -563 0
-358 -354 563 0
360 359 417 0
360 -359 -417 0
-360 359 -417 0
-360 -359 417 0
361 359 473 0
361 -359 -473 0
-361 359 -473 0
-361 -359 473 0
362 359 541 0
362 -359 -541 0
-362 359 -541 0
-362 -359 541 0
363 359 542 0
363 -359 -542 0
-363 359 -542 0
-363 -359 542 0
366 365 562 0
366 -365 -562 0
-366 365 -562 0
-366 -365 562 0
368 367 456 0
368 -367 -456 0
-368 367 -456 0
-368 -367 456 0
370 369 476 0
370 -369 -476 0
-370 369 -476 0
-370 -369 476 0
371 369 562 0
371 -369 -562 0
-371 369 -562 0
-371 -369 562 0
373 372 435 0
373 -372 -435 0
-373 372 -435 0
-373 -372 435 0
374 372 486 0
374 -372 -486 0
-374 372 -486 0
-374 -372 486 0
375 372 546 0
375 -372 -546 0
-375 372 -546 0
-375 -372 546 0
376 372 559 0
376 -372 -559 0
-376 372 -559 0
-376 -372 559 0
377 372 566 0
377 -372 -566 0
-377 372 -566 0
-377 -372 566 0
379 378 413 0
379 -378 -413 0
-379 378 -413 0
-379 -378 413 0
380 378 457 0
380 -378 -457 0
-380 378 -457 0
-380 -378 457 0
381 378 486 0
381 -378 -486 0
-381 378 -486 0
-381 -378 486 0
382 378 559 0
382 -378 -559 0
-382 378 -559 0
-382 -378 559 0
384 383 392 0
384 -383 -392 0
-384 383 -392 0
-384 -383 392 0
387 386 544 0
387 -386 -544 0
-387 386 -544 0
-387 -386 544 0
389 388 451 0
389 -388 -451 0
-389 388 -451 0
-389 -388 451 0
390 388 543 0
390 -388 -543 0
-390 388 -543 0
-390 -388 543 0
391 388 559 0
391 -388 -559 0
-391 388 -559 0
-391 -388 559 0
393 392 417 0
393 -392 -417 0
-393 392 -417 0
-393 -392 417 0
394 392 466 0
394 -392 -466 0
-394 392 -466 0
-394 -392 466 0
395 392 479 0
395 -392 -479 0
-395 392 -479 0
-395 -392 479 0
396 392 489 0
396 -392 -489 0
-396 392 -489 0
-396 -392 489 0
400 399 524 0
400 -399 -524 0
-400 399 -524 0
-400 -399 524 0
401 399 540 0
401 -399 -540 0
-401 399 -540 0
-401 -399 540 0
403 402 544 0
403 -402 -544 0
-403 402 -544 0
-403 -402 544 0
405 404 529 0
405 -404 -529 0
-405 404 -529 0
-405 -404 529 0
407 406 442 0
407 -406 -442 0
-407 406 -442 0
-407 -406 442 0
408 406 476 0
408 -406 -476 0
-408 406 -476 0
-408 -406 476 0
410 409 423 0
410 -409 -423 0
-410 409 -423 0
-410 -409 423 0
411 409 476 0
411 -409 -476 0
-411 409 -476 0
-411 -409 476 0
412 409 501 0
412 -409 -501 0
-412 409 -501 0
-412 -409 501 0
414 413 476 0
414 -413 -476 0
-414 413 -476 0
-414 -413 476 0
415 413 494 0
415 -413 -494 0
-415 413 -494 0
-415 -413 494 0
416 413 553 0
416 -413 -553 0
-416 413 -553 0
-416 -413 553 0
418 417 443 0
418 -417 -443 0
-418 417 -443 0
-418 -417 443 0
419 417 492 0
419 -417 -492 0
-419 417 -492 0
-419 -417 492 0
420 417 517 0
420 -417 -517 0
-420 417 -517 0
-420 -417 517 0
422 421 506 0
422 -421 -506 0
-422 421 -506 0
-422 -421 506 0
424 423 449 0
424 -423 -449 0
-424 423 -449 0
-424 -423 449 0
426 425 435 0
426 -425 -435 0
-426 425 -435 0
-426 -425 435 0
428 427 520 0
428 -427 -520 0
-428 427 -520 0
-428 -427 520 0
430 429 495 0
430 -429 -495 0
-430 429 -495 0
-430 -429 495 0
431 429 560 0
431 -429 -560 0
-431 429 -560 0
-431 -429 560 0
433 432 476 0
433 -432 -476 0
-433 432 -476 0
-433 -432 476 0
434 432 536 0
434 -432 -536 0
-434 432 -536 0
-434 -432 536 0
436 435 466 0
436 -435 -466 0
-436 435 -466 0
-436 -435 466 0
437 435 546 0
437 -435 -546 0
-437 435 -546 0
-437 -435 546 0
439 438 479 0
439 -438 -479 0
-439 438 -479 0
-439 -438 479 0
440 438 524 0
440 -438 -524 0
-440 438 -524 0
-440 -438 524 0
444 443 464 0
444 -443 -464 0
-444 443 -464 0
-444 -443 464 0
445 443 466 0
445 -443 -466 0
-445 443 -466 0
-445 -443 466 0
446 443 499 0
446 -443 -499 0
-446 443 -499 0
-446 -443 499 0
447 443 541 0
447 -443 -541 0
-447 443 -541 0
-447 -443 541 0
448 443 544 0
448 -443 -544 0
-448 443 -544 0
-448 -443 544 0
450 449 486 0
450 -449 -486 0
-450 449 -486 0
-450 -449 486 0
452 451 542 0
452 -451 -542 0
-452 451 -542 0
-452 -451 542 0
453 451 544 0
453 -451 -544 0
-453 451 -544 0
-453 -451 544 0
455 454 520 0
455 -454 -520 0
-455 454 -520 0
-455 -454 520 0
458 457 479 0
458 -457 -479 0
-458 457 -479 0
-458 -457 479 0
459 457 487 0
459 -457 -487 0
-459 457 -487 0
-459 -457 487 0
460 457 549 0
460 -457 -549 0
-460 457 -549 0
-460 -457 549 0
462 461 479 0
462 -461 -479 0
-462 461 -479 0
-462 -461 479 0
463 461 557 0
463 -461 -557 0
-463 461 -557 0
-463 -461 557 0
465 464 533 0
465 -464 -533 0
-465 464 -533 0
-465 -464 533 0
467 466 492 0
467 -466 -492 0
-467 466 -492 0
-467 -466 492 0
468 466 556 0
468 -466 -556 0
-468 466 -556 0
-468 -466 556 0
470 469 483 0
470 -469 -483 0
-470 469 -483 0
-470 -469 483 0
471 469 506 0
471 -469 -506 0
-471 469 -506 0
-471 -469 506 0
472 469 546 0
472 -469 -546 0
-472 469 -546 0
-472 -469 546 0
475 474 505 0
475 -474 -505 0
-475 474 -505 0
-475 -474 505 0
477 476 524 0
477 -476 -524 0
-477 476 -524 0
-477 -476 524 0
478 476 545 0
478 -476 -545 0
-478 476 -545 0
-478 -476 545 0
480 479 493 0
480 -479 -493 0
-480 479 -493 0
-480 -479 493 0
482 481 521 0
482 -481 -521 0
-482 481 -521 0
-482 -481 521 0
484 483 528 0
484 -483 -528 0
-484 483 -528 0
-484 -483 528 0
488 487 521 0
488 -487 -521 0
-488 487 -521 0
-488 -487 521 0
490 489 538 0
490 -489 -538 0
-490 489 -538 0
-490 -489 538 0
496 495 499 0
496 -495 -499 0
-496 495 -499 0
-496 -495 499 0
500 499 550 0
500 -499 -550 0
-500 499 -550 0
-500 -499 550 0
502 501 517 0
502 -501 -517 0
-502 501 -517 0
-502 -501 517 0
503 501 533 0
503 -501 -533 0
-503 501 -533 0
-503 -501 533 0
504 501 554 0
504 -501 -554 0
-504 501 -554 0
-504 -501 554 0
507 506 520 0
507 -506 -520 0
-507 506 -520 0
-507 -506 520 0
508 506 551 0
508 -506 -551 0
-508 506 -551 0
-508 -506 551 0
509 506 563 0
509 -506 -563 0
-509 506 -563 0
-509 -506 563 0
511 510 547 0
511 -510 -547 0
-511 510 -547 0
-511 -510 547 0
513 512 521 0
513 -512 -521 0
-513 512 -521 0
-513 -512 521 0
515 514 533 0
515 -514 -533 0
-515 514 -533 0
-515 -514 533 0
516 514 564 0
516 -514 -564 0
-516 514 -564 0
-516 -514 564 0
518 517 543 0
518 -517 -543 0
-518 517 -543 0
-518 -517 543 0
519 517 544 0
519 -517 -544 0
-519 517 -544 0
-519 -517 544 0
522 521 536 0
522 -521 -536 0
-522 521 -536 0
-522 -521 536 0
523 521 560 0
523 -521 -560 0
-523 521 -560 0
-523 -521 560 0
525 524 539 0
525 -524 -539 0
-525 524 -539 0
-525 -524 539 0
527 526 540 0
527 -526 -540 0
-527 526 -540 0
-527 -526 540 0
531 530 554 0
531 -530 -554 0
-531 530 -554 0
-531 -530 554 0
532 530 557 0
532 -530 -557 0
-532 530 -557 0
-532 -530 557 0
537 536 543 0
537 -536 -543 0
-537 536 -543 0
-537 -536 543 0
548 547 555 0
548 -547 -555 0
-548 547 -555 0
-548 -547 555 0
552 551 556 0
552 -551 -556 0
-552 551 -556 0
-552 -551 556 0
558 557 565 0
558 -557 -565 0
-558 557 -565 0
-558 -557 565 0
561 560 566 0
561 -560 -566 0
-561 560 -566 0
-561 -560 566 0
